1 1 -2 0
1 1 3 0
1 2 3 0
1 2 4 0
1 -2 5 0
1 6 -7 0
1 -6 8 0
1 7 -9 0
1 7 10 0
1 7 1 0
1 3 -11 0
1 -3 -6 0
1 -4 -3 0
1 4 -12 0
1 -13 14 0
1 -13 -7 0
1 13 15 0
1 -14 -16 0
1 -10 -17 0
1 18 -19 0
1 -15 20 0
1 -15 -21 0
1 15 -6 0
1 -21 -18 0
1 -21 -22 0
1 -21 13 0
1 23 24 0
1 -23 10 0
1 -25 -26 0
1 -25 27 0
1 25 28 0
1 25 -6 0
1 -20 -27 0
1 22 15 0
1 -22 -29 0
1 30 19 0
1 -29 31 0
1 -29 -32 0
1 -29 33 0
1 34 -35 0
1 -34 -10 0
1 34 -33 0
1 -36 -20 0
1 36 -18 0
1 -36 -37 0
1 -19 -37 0
1 19 -31 0
1 19 10 0
1 -19 36 0
1 -38 39 0
1 -38 40 0
1 8 41 0
1 8 6 0
1 -42 41 0
1 39 11 0
1 40 -43 0
1 -40 -42 0
1 -44 -8 0
1 -45 42 0
1 -45 -46 0
1 -47 16 0
1 47 -41 0
1 -47 4 0
1 16 47 0
1 -16 -4 0
1 -17 4 0
1 11 39 0
1 -11 18 0
1 -48 -49 0
1 -50 -51 0
1 -50 11 0
1 50 -48 0
1 -50 28 0
1 52 43 0
1 -52 16 0
1 41 -11 0
1 41 47 0
1 9 -7 0
1 -9 23 0
1 -27 -53 0
1 -27 -23 0
1 -27 50 0
1 27 54 0
1 27 4 0
1 -28 55 0
1 -28 -12 0
1 51 -25 0
1 51 28 0
1 51 50 0
1 -53 -37 0
1 -53 -56 0
1 57 -58 0
1 59 11 0
1 59 -60 0
1 -59 9 0
1 -59 -61 0
1 54 62 0
1 -63 53 0
1 -64 -53 0
1 -64 -23 0
1 64 -15 0
1 -37 65 0
1 37 66 0
1 -37 55 0
1 58 19 0
1 58 37 0
1 -67 -65 0
1 -67 -68 0
1 -67 -63 0
1 -67 69 0
1 67 33 0
1 -55 -70 0
1 12 71 0
1 12 -55 0
1 -12 -63 0
1 12 28 0
1 12 72 0
1 -12 -73 0
1 -74 19 0
1 74 -66 0
1 74 67 0
1 74 75 0
1 -74 -29 0
1 33 66 0
1 33 19 0
1 -33 -74 0
1 -33 -73 0
1 68 -65 0
1 -68 -76 0
1 -68 24 0
1 -68 -75 0
1 77 66 0
1 77 67 0
1 -75 -78 0
1 -75 -74 0
1 75 -79 0
1 75 -58 0
1 -66 80 0
1 -66 -81 0
1 -66 82 0
1 -66 -77 0
1 66 33 0
1 -24 83 0
1 -24 -74 0
1 -24 -23 0
1 -24 -84 0
1 24 77 0
1 -24 33 0
1 26 -85 0
1 82 -35 0
1 -79 -66 0
1 -79 86 0
1 -79 -82 0
1 -79 -75 0
1 -79 -70 0
1 78 87 0
1 -88 86 0
1 32 -78 0
1 35 89 0
1 -87 86 0
1 -87 68 0
1 87 90 0
1 -87 -36 0
1 87 77 0
1 86 87 0
1 91 92 0
1 91 -93 0
1 -91 -94 0
1 95 -92 0
1 -95 -94 0
1 96 -97 0
1 96 -98 0
1 -96 95 0
1 -94 99 0
1 -94 95 0
1 -92 -100 0
1 -92 -96 0
1 93 101 0
1 -93 102 0
1 93 96 0
1 -103 -45 0
1 104 97 0
1 100 -105 0
1 -100 106 0
1 100 107 0
1 108 -43 0
1 108 98 0
1 -108 103 0
1 -98 -109 0
1 98 -110 0
1 -98 111 0
1 -107 104 0
1 -107 95 0
1 -97 104 0
1 46 -112 0
1 46 -40 0
1 46 -108 0
1 -43 -106 0
1 43 40 0
1 111 -109 0
1 -111 113 0
1 -111 98 0
1 -111 -106 0
1 111 114 0
1 109 113 0
1 -109 112 0
1 -109 -108 0
1 -105 43 0
1 105 -49 0
1 -105 -111 0
1 -106 109 0
1 -115 109 0
1 115 -43 0
1 -115 46 0
1 112 -43 0
1 -112 -116 0
1 49 -48 0
1 -49 117 0
1 -62 -105 0
1 62 113 0
1 62 114 0
1 -60 113 0
1 -60 -118 0
1 -60 59 0
1 -60 37 0
1 -61 -105 0
1 61 119 0
1 61 114 0
1 61 120 0
1 -61 121 0
1 118 -122 0
1 118 123 0
1 -118 76 0
1 -114 62 0
1 114 49 0
1 114 -40 0
1 114 -124 0
1 -114 125 0
1 114 -72 0
1 114 73 0
1 113 126 0
1 -113 127 0
1 113 61 0
1 117 128 0
1 -117 60 0
1 -71 73 0
1 -71 12 0
1 -73 -33 0
1 -76 129 0
1 -76 -128 0
1 76 55 0
1 -72 -76 0
1 72 130 0
1 -131 -130 0
1 -131 71 0
1 -131 -60 0
1 131 70 0
1 -131 72 0
1 130 -60 0
1 -130 -132 0
1 130 -50 0
1 -119 71 0
1 -119 -125 0
1 120 119 0
1 120 60 0
1 120 -41 0
1 -83 130 0
1 83 -12 0
1 70 131 0
1 70 55 0
1 70 -67 0
1 70 130 0
1 -70 -125 0
1 -70 133 0
1 -85 134 0
1 85 129 0
1 -85 135 0
1 132 129 0
1 56 136 0
1 -56 83 0
1 -133 -85 0
1 -133 -83 0
1 133 -56 0
1 -133 137 0
1 -133 138 0
1 129 139 0
1 -129 -140 0
1 129 141 0
1 129 -142 0
1 -129 132 0
1 -141 129 0
1 141 -54 0
1 -141 -143 0
1 -80 -66 0
1 80 -140 0
1 80 86 0
1 80 87 0
1 90 69 0
1 90 -24 0
1 90 -135 0
1 -136 137 0
1 136 87 0
1 -136 133 0
1 136 -135 0
1 -137 144 0
1 -137 145 0
1 137 -146 0
1 69 -80 0
1 69 -137 0
1 -69 132 0
1 69 -147 0
1 144 148 0
1 144 -136 0
1 144 85 0
1 144 69 0
1 144 132 0
1 146 149 0
1 -146 150 0
1 135 151 0
1 135 -146 0
1 148 -89 0
1 -148 -84 0
1 -148 152 0
1 89 -148 0
1 -89 81 0
1 89 35 0
1 -89 84 0
1 89 152 0
1 -147 144 0
1 147 69 0
1 -147 84 0
1 147 -153 0
1 -147 -154 0
1 -155 156 0
1 -155 -84 0
1 -152 148 0
1 152 -81 0
1 -152 147 0
1 -81 66 0
1 81 152 0
1 -81 157 0
1 -145 -155 0
1 158 -153 0
1 159 154 0
1 159 -160 0
1 -154 155 0
1 -154 147 0
1 -153 87 0
1 -161 -155 0
1 162 99 0
1 162 107 0
1 163 -164 0
1 163 112 0
1 -116 -110 0
1 116 99 0
1 -121 165 0
1 121 -116 0
1 121 -101 0
1 -121 -115 0
1 99 166 0
1 -101 -164 0
1 101 162 0
1 -101 93 0
1 -164 -162 0
1 -164 121 0
1 -167 -113 0
1 -167 -110 0
1 167 -127 0
1 127 168 0
1 -128 -117 0
1 -128 -168 0
1 128 169 0
1 126 -117 0
1 -126 99 0
1 -110 -170 0
1 -110 -134 0
1 -110 98 0
1 110 -116 0
1 -110 168 0
1 171 -172 0
1 171 173 0
1 -174 170 0
1 -174 -175 0
1 -123 -110 0
1 125 -119 0
1 -125 110 0
1 125 120 0
1 134 176 0
1 -134 -119 0
1 134 -177 0
1 178 176 0
1 178 -110 0
1 178 177 0
1 178 -179 0
1 178 -124 0
1 -180 -105 0
1 180 177 0
1 -180 178 0
1 -177 180 0
1 -177 181 0
1 169 -182 0
1 -169 115 0
1 -183 123 0
1 -183 -112 0
1 -183 172 0
1 183 125 0
1 140 170 0
1 -140 -119 0
1 -140 -131 0
1 140 177 0
1 -181 180 0
1 -181 -140 0
1 181 129 0
1 -139 184 0
1 -139 179 0
1 -142 129 0
1 -122 185 0
1 122 -124 0
1 -122 -178 0
1 124 -134 0
1 124 181 0
1 176 -140 0
1 151 -148 0
1 -151 141 0
1 -151 135 0
1 -149 122 0
1 149 186 0
1 149 187 0
1 149 -188 0
1 -149 -133 0
1 -150 -122 0
1 150 184 0
1 150 189 0
1 150 124 0
1 -150 -147 0
1 185 150 0
1 -185 -143 0
1 186 139 0
1 186 131 0
1 186 -190 0
1 -188 -191 0
1 184 192 0
1 -184 -149 0
1 187 192 0
1 187 -149 0
1 -190 69 0
1 -193 -146 0
1 -193 -135 0
1 160 -191 0
1 -191 -194 0
1 -191 -188 0
1 195 56 0
1 195 185 0
1 195 -160 0
1 -138 193 0
1 138 -160 0
1 138 190 0
1 138 150 0
1 189 -160 0
1 -189 150 0
1 170 196 0
1 170 166 0
1 -172 -174 0
1 -172 110 0
1 -172 -183 0
1 -172 197 0
1 182 175 0
1 -182 173 0
1 198 197 0
1 198 199 0
1 -166 200 0
1 -166 172 0
1 -196 -198 0
1 -196 166 0
1 197 -198 0
1 -201 198 0
1 -200 196 0
1 200 -202 0
1 -200 -166 0
1 -203 -183 0
1 -203 -177 0
1 203 -179 0
1 -203 -199 0
1 204 -205 0
1 199 182 0
1 202 -110 0
1 -202 -192 0
1 202 -203 0
1 173 -175 0
1 -173 171 0
1 -175 -203 0
1 -206 194 0
1 -194 207 0
1 -194 202 0
1 -208 209 0
1 208 -206 0
